p cnf 20 22
-1 6 9 18 0 
-2 15 18 0 
-3 -4 -5 12 -6 1 9 19 0 
-3 -4 -7 -5 12 19 0 
-8 18 0 
-5 12 -9 1 6 19 0 
-10 20 0 
-8 20 0 
-2 15 20 0 
-10 19 0 
-11 18 0 
-6 1 9 19 0 
-12 5 18 0 
-13 17 18 0 
-5 12 19 0 
-2 15 -14 18 0 
-12 5 20 0 
-15 2 18 0 
-10 -16 18 0 
-9 1 6 18 0 
-17 13 18 0 
-7 20 0 
